W=5;
H=5;

MAX_TIME=15;
MAX_TRACKS=11;

TARGET=(5,5);

TRAINS=[(3,1,RIGHT),(5,1,RIGHT),(2,1,RIGHT)];
DECOYS=[];

INIT_POS=[
(2,1,STRAIGHT_RL),
(2,3,ESWITCH_R_L_T),
(3,1,STRAIGHT_RL),
(3,4,ESWITCH_T_D_L),
(4,3,ESWITCH_R_L_D),
(5,1,STRAIGHT_RL),
(5,5,STRAIGHT_RL),
];
TUNNEL_PAIRS=[];

GATES=[];
ACTIVATIONS=[];

DSWITCHES=[];
STATIONS=[];
